p edge 44 88
e 1 7
e 1 26
e 1 37
e 2 14
e 3 10
e 3 17
e 3 26
e 3 34
e 3 42
e 3 44
e 4 11
e 4 19
e 4 22
e 4 36
e 5 6
e 5 12
e 5 19
e 5 31
e 5 35
e 5 43
e 6 10
e 6 31
e 6 34
e 6 37
e 6 44
e 7 11
e 7 18
e 7 21
e 7 22
e 8 10
e 8 18
e 8 19
e 8 32
e 9 26
e 9 43
e 9 44
e 10 12
e 11 14
e 11 17
e 11 24
e 11 28
e 11 36
e 12 27
e 12 43
e 13 17
e 13 32
e 13 43
e 14 23
e 15 16
e 15 35
e 16 21
e 16 23
e 16 37
e 17 40
e 17 41
e 18 29
e 18 36
e 18 43
e 19 28
e 19 34
e 19 36
e 19 44
e 20 24
e 20 25
e 20 35
e 21 27
e 21 44
e 22 37
e 23 32
e 23 44
e 24 38
e 25 26
e 26 27
e 26 34
e 26 35
e 26 40
e 27 39
e 28 30
e 28 36
e 28 43
e 29 35
e 29 40
e 30 41
e 31 36
e 33 35
e 37 38
e 37 43
e 38 44
